97
0 24 67 15 40 43 76 56 66 6 
50 48 91 33 54 47 10 21 92 85 
35 69 26 80 88 14 4 45 5 7 
78 41 31 8 37 16 59 58 63 73 
32 13 22 44 1 9 90 68 86 83 
55 30 38 57 36 52 95 39 25 75 
20 96 34 60 89 12 64 87 11 82 
46 94 49 65 84 2 61 51 62 29 
79 93 42 19 70 74 17 23 18 81 
28 53 71 77 3 72 27 
